NAME: eil101
COMMENT: Local search tour for eil101 (710.524245262389)
TYPE: TOUR
DIMENSION: 101
TOUR_SECTION: 1 27 69 70 31 88 7 82 48 47 19 11 62 10 32 90 63 64 49 36 46 8 45 17 84 5 60 83 18 52 89 6 94 96 99 59 93 85 61 16 86 38 44 14 43 15 57 2 87 42 100 91 98 37 92 97 95 13 58 40 26 53 101 28 12 68 80 54 4 72 21 73 74 22 41 75 56 23 67 39 25 55 24 29 78 34 35 71 65 66 20 30 51 9 81 33 79 3 77 76 50 -1
EOF